sat
(:added-eqs                       25317
 :arith-eq-adapter                930
 :arith-bound-propagations-lp     1617
 :arith-branch                    35
 :arith-conflicts                 2814
 :arith-cube-calls                20
 :arith-diseq                     12172
 :arith-fixed-eqs                 5219
 :arith-gcd-calls                 402
 :arith-gomory-cuts               39
 :arith-grobner-calls             499
 :arith-grobner-conflicts         132
 :arith-hnf-calls                 3
 :arith-horner-calls              133
 :arith-horner-conflicts          2
 :arith-horner-cross-nested-forms 14004
 :arith-lower                     13695
 :arith-make-feasible             9551
 :arith-max-columns               961
 :arith-max-rows                  518
 :arith-nla-add-bounds            132
 :arith-nla-lemmas                1564
 :arith-nla-propagate-bounds      794
 :arith-nla-propagate-eq          12240
 :arith-nra-calls                 49
 :arith-offset-eqs                4119
 :arith-patches                   402
 :arith-patches-success           337
 :arith-upper                     20365
 :binary-propagations             61754
 :cnf-encoding-aux-vars           11
 :conflicts                       637
 :decisions                       127194
 :del-clause                      3009
 :elim-unconstrained              184
 :final-checks                    1027
 :max-memory                      32.34
 :memory                          19.19
 :minimized-lits                  3626
 :mk-bool-var                     8019
 :mk-clause                       5452
 :mk-clause-binary                7610
 :nlsat-conflicts                 34
 :nlsat-decisions                 185
 :nlsat-propagations              8711
 :nlsat-stages                    2679
 :num-allocs                      1396641004
 :num-checks                      1
 :propagations                    97465
 :restarts                        5
 :rlimit-count                    4205994
 :solve-eqs-elim-vars             104
 :solve-eqs-steps                 942
 :time                            2.06
 :total-time                      2.08)
